(set-logic QF_S)
(declare-fun _var_0xINPUT_131340_() String)
(declare-fun __woorpje_diseq_pref0_() String)
(declare-fun __woorpje_diseq_suf_l0_() String)
(declare-fun __woorpje_diseq_suf_r0_() String)
(assert (=(str.++ _var_0xINPUT_131340_  "")(str.++ __woorpje_diseq_pref0_  "c" __woorpje_diseq_suf_l0_  "")) )
(assert (=(str.++  "W1GeCcbeFF" "")(str.++ __woorpje_diseq_pref0_  "F" __woorpje_diseq_suf_r0_  "")) )
(check-sat)
